\ Model vpr
\ LP format - for model browsing. Use MPS format to capture full model detail.
Minimize
  0 0/0 + 10 0,0,1 + 14.14213562373095 0,0,2 + 10 0,0,3
   + 14.14213562373095 0,0,4 + 10 0,1,0 + 10 0,1,2 + 20 0,1,3
   + 22.3606797749979 0,1,4 + 14.14213562373095 0,2,0 + 10 0,2,1
   + 22.3606797749979 0,2,3 + 28.2842712474619 0,2,4 + 10 0,3,0 + 20 0,3,1
   + 22.3606797749979 0,3,2 + 10 0,3,4 + 14.14213562373095 0,4,0
   + 22.3606797749979 0,4,1 + 28.2842712474619 0,4,2 + 10 0,4,3 + 0 1/0
   + 10 1,0,1 + 14.14213562373095 1,0,2 + 10 1,0,3
   + 14.14213562373095 1,0,4 + 10 1,1,0 + 10 1,1,2 + 20 1,1,3
   + 22.3606797749979 1,1,4 + 14.14213562373095 1,2,0 + 10 1,2,1
   + 22.3606797749979 1,2,3 + 28.2842712474619 1,2,4 + 10 1,3,0 + 20 1,3,1
   + 22.3606797749979 1,3,2 + 10 1,3,4 + 14.14213562373095 1,4,0
   + 22.3606797749979 1,4,1 + 28.2842712474619 1,4,2 + 10 1,4,3 + 0 2/0
   + 10 2,0,1 + 14.14213562373095 2,0,2 + 10 2,0,3
   + 14.14213562373095 2,0,4 + 10 2,1,0 + 10 2,1,2 + 20 2,1,3
   + 22.3606797749979 2,1,4 + 14.14213562373095 2,2,0 + 10 2,2,1
   + 22.3606797749979 2,2,3 + 28.2842712474619 2,2,4 + 10 2,3,0 + 20 2,3,1
   + 22.3606797749979 2,3,2 + 10 2,3,4 + 14.14213562373095 2,4,0
   + 22.3606797749979 2,4,1 + 28.2842712474619 2,4,2 + 10 2,4,3 + 0 3/0
   + 10 3,0,1 + 14.14213562373095 3,0,2 + 10 3,0,3
   + 14.14213562373095 3,0,4 + 10 3,1,0 + 10 3,1,2 + 20 3,1,3
   + 22.3606797749979 3,1,4 + 14.14213562373095 3,2,0 + 10 3,2,1
   + 22.3606797749979 3,2,3 + 28.2842712474619 3,2,4 + 10 3,3,0 + 20 3,3,1
   + 22.3606797749979 3,3,2 + 10 3,3,4 + 14.14213562373095 3,4,0
   + 22.3606797749979 3,4,1 + 28.2842712474619 3,4,2 + 10 3,4,3
Subject To
 (1)v,c=0,0: - 0,0,1 - 0,0,2 - 0,0,3 - 0,0,4 + 0,1,0 + 0,2,0 + 0,3,0
   + 0,4,0 = 0
 (1)v,c=0,1: 0,0,1 - 0,1,0 - 0,1,2 - 0,1,3 - 0,1,4 + 0,2,1 + 0,3,1 + 0,4,1
   = 0
 (1)v,c=0,2: 0,0,2 + 0,1,2 - 0,2,0 - 0,2,1 - 0,2,3 - 0,2,4 + 0,3,2 + 0,4,2
   = 0
 (1)v,c=0,3: 0,0,3 + 0,1,3 + 0,2,3 - 0,3,0 - 0,3,1 - 0,3,2 - 0,3,4 + 0,4,3
   = 0
 (1)v,c=0,4: 0,0,4 + 0,1,4 + 0,2,4 + 0,3,4 - 0,4,0 - 0,4,1 - 0,4,2 - 0,4,3
   = 0
 (1)v,c=1,0: - 1,0,1 - 1,0,2 - 1,0,3 - 1,0,4 + 1,1,0 + 1,2,0 + 1,3,0
   + 1,4,0 = 0
 (1)v,c=1,1: 1,0,1 - 1,1,0 - 1,1,2 - 1,1,3 - 1,1,4 + 1,2,1 + 1,3,1 + 1,4,1
   = 0
 (1)v,c=1,2: 1,0,2 + 1,1,2 - 1,2,0 - 1,2,1 - 1,2,3 - 1,2,4 + 1,3,2 + 1,4,2
   = 0
 (1)v,c=1,3: 1,0,3 + 1,1,3 + 1,2,3 - 1,3,0 - 1,3,1 - 1,3,2 - 1,3,4 + 1,4,3
   = 0
 (1)v,c=1,4: 1,0,4 + 1,1,4 + 1,2,4 + 1,3,4 - 1,4,0 - 1,4,1 - 1,4,2 - 1,4,3
   = 0
 (1)v,c=2,0: - 2,0,1 - 2,0,2 - 2,0,3 - 2,0,4 + 2,1,0 + 2,2,0 + 2,3,0
   + 2,4,0 = 0
 (1)v,c=2,1: 2,0,1 - 2,1,0 - 2,1,2 - 2,1,3 - 2,1,4 + 2,2,1 + 2,3,1 + 2,4,1
   = 0
 (1)v,c=2,2: 2,0,2 + 2,1,2 - 2,2,0 - 2,2,1 - 2,2,3 - 2,2,4 + 2,3,2 + 2,4,2
   = 0
 (1)v,c=2,3: 2,0,3 + 2,1,3 + 2,2,3 - 2,3,0 - 2,3,1 - 2,3,2 - 2,3,4 + 2,4,3
   = 0
 (1)v,c=2,4: 2,0,4 + 2,1,4 + 2,2,4 + 2,3,4 - 2,4,0 - 2,4,1 - 2,4,2 - 2,4,3
   = 0
 (1)v,c=3,0: - 3,0,1 - 3,0,2 - 3,0,3 - 3,0,4 + 3,1,0 + 3,2,0 + 3,3,0
   + 3,4,0 = 0
 (1)v,c=3,1: 3,0,1 - 3,1,0 - 3,1,2 - 3,1,3 - 3,1,4 + 3,2,1 + 3,3,1 + 3,4,1
   = 0
 (1)v,c=3,2: 3,0,2 + 3,1,2 - 3,2,0 - 3,2,1 - 3,2,3 - 3,2,4 + 3,3,2 + 3,4,2
   = 0
 (1)v,c=3,3: 3,0,3 + 3,1,3 + 3,2,3 - 3,3,0 - 3,3,1 - 3,3,2 - 3,3,4 + 3,4,3
   = 0
 (1)v,c=3,4: 3,0,4 + 3,1,4 + 3,2,4 + 3,3,4 - 3,4,0 - 3,4,1 - 3,4,2 - 3,4,3
   = 0
 (2)c=1: 0,1,0 + 0,1,2 + 0,1,3 + 0,1,4 + 1,1,0 + 1,1,2 + 1,1,3 + 1,1,4
   + 2,1,0 + 2,1,2 + 2,1,3 + 2,1,4 + 3,1,0 + 3,1,2 + 3,1,3 + 3,1,4 = 1
 (2)c=2: 0,2,0 + 0,2,1 + 0,2,3 + 0,2,4 + 1,2,0 + 1,2,1 + 1,2,3 + 1,2,4
   + 2,2,0 + 2,2,1 + 2,2,3 + 2,2,4 + 3,2,0 + 3,2,1 + 3,2,3 + 3,2,4 = 1
 (2)c=3: 0,3,0 + 0,3,1 + 0,3,2 + 0,3,4 + 1,3,0 + 1,3,1 + 1,3,2 + 1,3,4
   + 2,3,0 + 2,3,1 + 2,3,2 + 2,3,4 + 3,3,0 + 3,3,1 + 3,3,2 + 3,3,4 = 1
 (2)c=4: 0,4,0 + 0,4,1 + 0,4,2 + 0,4,3 + 1,4,0 + 1,4,1 + 1,4,2 + 1,4,3
   + 2,4,0 + 2,4,1 + 2,4,2 + 2,4,3 + 3,4,0 + 3,4,1 + 3,4,2 + 3,4,3 = 1
 (3)v=0: 0,0,1 + 0,0,2 + 0,0,3 + 0,0,4 = 1
 (3)v=1: 1,0,1 + 1,0,2 + 1,0,3 + 1,0,4 = 1
 (3)v=2: 2,0,1 + 2,0,2 + 2,0,3 + 2,0,4 = 1
 (3)v=3: 3,0,1 + 3,0,2 + 3,0,3 + 3,0,4 = 1
 (4)v=0: 3 0,0,1 + 3 0,0,2 + 3 0,0,3 + 3 0,1,2 + 3 0,1,3 + 3 0,2,1
   + 3 0,2,3 + 3 0,3,1 + 3 0,3,2 + 3 0,4,1 + 3 0,4,2 + 3 0,4,3 <= 10
 (4)v=1: 3 1,0,1 + 3 1,0,2 + 3 1,0,3 + 3 1,1,2 + 3 1,1,3 + 3 1,2,1
   + 3 1,2,3 + 3 1,3,1 + 3 1,3,2 + 3 1,4,1 + 3 1,4,2 + 3 1,4,3 <= 10
 (4)v=2: 3 2,0,1 + 3 2,0,2 + 3 2,0,3 + 3 2,1,2 + 3 2,1,3 + 3 2,2,1
   + 3 2,2,3 + 3 2,3,1 + 3 2,3,2 + 3 2,4,1 + 3 2,4,2 + 3 2,4,3 <= 10
 (4)v=3: 3 3,0,1 + 3 3,0,2 + 3 3,0,3 + 3 3,1,2 + 3 3,1,3 + 3 3,2,1
   + 3 3,2,3 + 3 3,3,1 + 3 3,3,2 + 3 3,4,1 + 3 3,4,2 + 3 3,4,3 <= 10
 (5)v,i,j=012: 0/1 - 10 0,1,2 - 0/2 >= -7
 (5)v,i,j=013: 0/1 - 10 0,1,3 - 0/3 >= -7
 (5)v,i,j=014: 0/1 - 10 0,1,4 - 0/4 >= -7
 (5)v,i,j=021: - 0/1 + 0/2 - 10 0,2,1 >= -7
 (5)v,i,j=023: 0/2 - 10 0,2,3 - 0/3 >= -7
 (5)v,i,j=024: 0/2 - 10 0,2,4 - 0/4 >= -7
 (5)v,i,j=031: - 0/1 + 0/3 - 10 0,3,1 >= -7
 (5)v,i,j=032: - 0/2 + 0/3 - 10 0,3,2 >= -7
 (5)v,i,j=034: 0/3 - 10 0,3,4 - 0/4 >= -7
 (5)v,i,j=041: - 0/1 + 0/4 - 10 0,4,1 >= -7
 (5)v,i,j=042: - 0/2 + 0/4 - 10 0,4,2 >= -7
 (5)v,i,j=043: - 0/3 + 0/4 - 10 0,4,3 >= -7
 (5)v,i,j=112: 1/1 - 10 1,1,2 - 1/2 >= -7
 (5)v,i,j=113: 1/1 - 10 1,1,3 - 1/3 >= -7
 (5)v,i,j=114: 1/1 - 10 1,1,4 - 1/4 >= -7
 (5)v,i,j=121: - 1/1 + 1/2 - 10 1,2,1 >= -7
 (5)v,i,j=123: 1/2 - 10 1,2,3 - 1/3 >= -7
 (5)v,i,j=124: 1/2 - 10 1,2,4 - 1/4 >= -7
 (5)v,i,j=131: - 1/1 + 1/3 - 10 1,3,1 >= -7
 (5)v,i,j=132: - 1/2 + 1/3 - 10 1,3,2 >= -7
 (5)v,i,j=134: 1/3 - 10 1,3,4 - 1/4 >= -7
 (5)v,i,j=141: - 1/1 + 1/4 - 10 1,4,1 >= -7
 (5)v,i,j=142: - 1/2 + 1/4 - 10 1,4,2 >= -7
 (5)v,i,j=143: - 1/3 + 1/4 - 10 1,4,3 >= -7
 (5)v,i,j=212: 2/1 - 10 2,1,2 - 2/2 >= -7
 (5)v,i,j=213: 2/1 - 10 2,1,3 - 2/3 >= -7
 (5)v,i,j=214: 2/1 - 10 2,1,4 - 2/4 >= -7
 (5)v,i,j=221: - 2/1 + 2/2 - 10 2,2,1 >= -7
 (5)v,i,j=223: 2/2 - 10 2,2,3 - 2/3 >= -7
 (5)v,i,j=224: 2/2 - 10 2,2,4 - 2/4 >= -7
 (5)v,i,j=231: - 2/1 + 2/3 - 10 2,3,1 >= -7
 (5)v,i,j=232: - 2/2 + 2/3 - 10 2,3,2 >= -7
 (5)v,i,j=234: 2/3 - 10 2,3,4 - 2/4 >= -7
 (5)v,i,j=241: - 2/1 + 2/4 - 10 2,4,1 >= -7
 (5)v,i,j=242: - 2/2 + 2/4 - 10 2,4,2 >= -7
 (5)v,i,j=243: - 2/3 + 2/4 - 10 2,4,3 >= -7
 (5)v,i,j=312: 3/1 - 10 3,1,2 - 3/2 >= -7
 (5)v,i,j=313: 3/1 - 10 3,1,3 - 3/3 >= -7
 (5)v,i,j=314: 3/1 - 10 3,1,4 - 3/4 >= -7
 (5)v,i,j=321: - 3/1 + 3/2 - 10 3,2,1 >= -7
 (5)v,i,j=323: 3/2 - 10 3,2,3 - 3/3 >= -7
 (5)v,i,j=324: 3/2 - 10 3,2,4 - 3/4 >= -7
 (5)v,i,j=331: - 3/1 + 3/3 - 10 3,3,1 >= -7
 (5)v,i,j=332: - 3/2 + 3/3 - 10 3,3,2 >= -7
 (5)v,i,j=334: 3/3 - 10 3,3,4 - 3/4 >= -7
 (5)v,i,j=341: - 3/1 + 3/4 - 10 3,4,1 >= -7
 (5)v,i,j=342: - 3/2 + 3/4 - 10 3,4,2 >= -7
 (5)v,i,j=343: - 3/3 + 3/4 - 10 3,4,3 >= -7
Bounds
 0/0 <= 10
 3 <= 0/1 <= 10
 3 <= 0/2 <= 10
 3 <= 0/3 <= 10
 3 <= 0/4 <= 10
 1/0 <= 10
 3 <= 1/1 <= 10
 3 <= 1/2 <= 10
 3 <= 1/3 <= 10
 3 <= 1/4 <= 10
 2/0 <= 10
 3 <= 2/1 <= 10
 3 <= 2/2 <= 10
 3 <= 2/3 <= 10
 3 <= 2/4 <= 10
 3/0 <= 10
 3 <= 3/1 <= 10
 3 <= 3/2 <= 10
 3 <= 3/3 <= 10
 3 <= 3/4 <= 10
Binaries
 0,0,1 0,0,2 0,0,3 0,0,4 0,1,0 0,1,2 0,1,3 0,1,4 0,2,0 0,2,1 0,2,3 0,2,4
 0,3,0 0,3,1 0,3,2 0,3,4 0,4,0 0,4,1 0,4,2 0,4,3 1,0,1 1,0,2 1,0,3 1,0,4
 1,1,0 1,1,2 1,1,3 1,1,4 1,2,0 1,2,1 1,2,3 1,2,4 1,3,0 1,3,1 1,3,2 1,3,4
 1,4,0 1,4,1 1,4,2 1,4,3 2,0,1 2,0,2 2,0,3 2,0,4 2,1,0 2,1,2 2,1,3 2,1,4
 2,2,0 2,2,1 2,2,3 2,2,4 2,3,0 2,3,1 2,3,2 2,3,4 2,4,0 2,4,1 2,4,2 2,4,3
 3,0,1 3,0,2 3,0,3 3,0,4 3,1,0 3,1,2 3,1,3 3,1,4 3,2,0 3,2,1 3,2,3 3,2,4
 3,3,0 3,3,1 3,3,2 3,3,4 3,4,0 3,4,1 3,4,2 3,4,3
End
